p cnf 150 1240
1 2 3 4 5 0
6 7 8 9 10 0
11 12 13 14 15 0
16 17 18 19 20 0
21 22 23 24 25 0
26 27 28 29 30 0
31 32 33 34 35 0
36 37 38 39 40 0
41 42 43 44 45 0
46 47 48 49 50 0
51 52 53 54 55 0
56 57 58 59 60 0
61 62 63 64 65 0
66 67 68 69 70 0
71 72 73 74 75 0
76 77 78 79 80 0
81 82 83 84 85 0
86 87 88 89 90 0
91 92 93 94 95 0
96 97 98 99 100 0
101 102 103 104 105 0
106 107 108 109 110 0
111 112 113 114 115 0
116 117 118 119 120 0
121 122 123 124 125 0
126 127 128 129 130 0
131 132 133 134 135 0
136 137 138 139 140 0
141 142 143 144 145 0
146 147 148 149 150 0
-1 -2 0
-1 -3 0
-1 -4 0
-1 -5 0
-2 -3 0
-2 -4 0
-2 -5 0
-3 -4 0
-3 -5 0
-4 -5 0
-6 -7 0
-6 -8 0
-6 -9 0
-6 -10 0
-7 -8 0
-7 -9 0
-7 -10 0
-8 -9 0
-8 -10 0
-9 -10 0
-11 -12 0
-11 -13 0
-11 -14 0
-11 -15 0
-12 -13 0
-12 -14 0
-12 -15 0
-13 -14 0
-13 -15 0
-14 -15 0
-16 -17 0
-16 -18 0
-16 -19 0
-16 -20 0
-17 -18 0
-17 -19 0
-17 -20 0
-18 -19 0
-18 -20 0
-19 -20 0
-21 -22 0
-21 -23 0
-21 -24 0
-21 -25 0
-22 -23 0
-22 -24 0
-22 -25 0
-23 -24 0
-23 -25 0
-24 -25 0
-26 -27 0
-26 -28 0
-26 -29 0
-26 -30 0
-27 -28 0
-27 -29 0
-27 -30 0
-28 -29 0
-28 -30 0
-29 -30 0
-31 -32 0
-31 -33 0
-31 -34 0
-31 -35 0
-32 -33 0
-32 -34 0
-32 -35 0
-33 -34 0
-33 -35 0
-34 -35 0
-36 -37 0
-36 -38 0
-36 -39 0
-36 -40 0
-37 -38 0
-37 -39 0
-37 -40 0
-38 -39 0
-38 -40 0
-39 -40 0
-41 -42 0
-41 -43 0
-41 -44 0
-41 -45 0
-42 -43 0
-42 -44 0
-42 -45 0
-43 -44 0
-43 -45 0
-44 -45 0
-46 -47 0
-46 -48 0
-46 -49 0
-46 -50 0
-47 -48 0
-47 -49 0
-47 -50 0
-48 -49 0
-48 -50 0
-49 -50 0
-51 -52 0
-51 -53 0
-51 -54 0
-51 -55 0
-52 -53 0
-52 -54 0
-52 -55 0
-53 -54 0
-53 -55 0
-54 -55 0
-56 -57 0
-56 -58 0
-56 -59 0
-56 -60 0
-57 -58 0
-57 -59 0
-57 -60 0
-58 -59 0
-58 -60 0
-59 -60 0
-61 -62 0
-61 -63 0
-61 -64 0
-61 -65 0
-62 -63 0
-62 -64 0
-62 -65 0
-63 -64 0
-63 -65 0
-64 -65 0
-66 -67 0
-66 -68 0
-66 -69 0
-66 -70 0
-67 -68 0
-67 -69 0
-67 -70 0
-68 -69 0
-68 -70 0
-69 -70 0
-71 -72 0
-71 -73 0
-71 -74 0
-71 -75 0
-72 -73 0
-72 -74 0
-72 -75 0
-73 -74 0
-73 -75 0
-74 -75 0
-76 -77 0
-76 -78 0
-76 -79 0
-76 -80 0
-77 -78 0
-77 -79 0
-77 -80 0
-78 -79 0
-78 -80 0
-79 -80 0
-81 -82 0
-81 -83 0
-81 -84 0
-81 -85 0
-82 -83 0
-82 -84 0
-82 -85 0
-83 -84 0
-83 -85 0
-84 -85 0
-86 -87 0
-86 -88 0
-86 -89 0
-86 -90 0
-87 -88 0
-87 -89 0
-87 -90 0
-88 -89 0
-88 -90 0
-89 -90 0
-91 -92 0
-91 -93 0
-91 -94 0
-91 -95 0
-92 -93 0
-92 -94 0
-92 -95 0
-93 -94 0
-93 -95 0
-94 -95 0
-96 -97 0
-96 -98 0
-96 -99 0
-96 -100 0
-97 -98 0
-97 -99 0
-97 -100 0
-98 -99 0
-98 -100 0
-99 -100 0
-101 -102 0
-101 -103 0
-101 -104 0
-101 -105 0
-102 -103 0
-102 -104 0
-102 -105 0
-103 -104 0
-103 -105 0
-104 -105 0
-106 -107 0
-106 -108 0
-106 -109 0
-106 -110 0
-107 -108 0
-107 -109 0
-107 -110 0
-108 -109 0
-108 -110 0
-109 -110 0
-111 -112 0
-111 -113 0
-111 -114 0
-111 -115 0
-112 -113 0
-112 -114 0
-112 -115 0
-113 -114 0
-113 -115 0
-114 -115 0
-116 -117 0
-116 -118 0
-116 -119 0
-116 -120 0
-117 -118 0
-117 -119 0
-117 -120 0
-118 -119 0
-118 -120 0
-119 -120 0
-121 -122 0
-121 -123 0
-121 -124 0
-121 -125 0
-122 -123 0
-122 -124 0
-122 -125 0
-123 -124 0
-123 -125 0
-124 -125 0
-126 -127 0
-126 -128 0
-126 -129 0
-126 -130 0
-127 -128 0
-127 -129 0
-127 -130 0
-128 -129 0
-128 -130 0
-129 -130 0
-131 -132 0
-131 -133 0
-131 -134 0
-131 -135 0
-132 -133 0
-132 -134 0
-132 -135 0
-133 -134 0
-133 -135 0
-134 -135 0
-136 -137 0
-136 -138 0
-136 -139 0
-136 -140 0
-137 -138 0
-137 -139 0
-137 -140 0
-138 -139 0
-138 -140 0
-139 -140 0
-141 -142 0
-141 -143 0
-141 -144 0
-141 -145 0
-142 -143 0
-142 -144 0
-142 -145 0
-143 -144 0
-143 -145 0
-144 -145 0
-146 -147 0
-146 -148 0
-146 -149 0
-146 -150 0
-147 -148 0
-147 -149 0
-147 -150 0
-148 -149 0
-148 -150 0
-149 -150 0
-4 -40 0
-5 -36 0
-4 -38 0
-3 -39 0
-2 -40 0
-2 -37 0
-3 -40 0
-2 -48 0
-3 -48 0
-3 -50 0
-4 -47 0
-2 -50 0
-5 -46 0
-1 -50 0
-5 -58 0
-1 -57 0
-5 -59 0
-3 -60 0
-3 -57 0
-5 -60 0
-1 -59 0
-3 -85 0
-1 -83 0
-1 -84 0
-3 -82 0
-2 -81 0
-2 -82 0
-4 -82 0
-5 -91 0
-5 -93 0
-4 -94 0
-1 -94 0
-2 -95 0
-2 -92 0
-1 -91 0
-4 -130 0
-4 -129 0
-2 -129 0
-5 -129 0
-1 -130 0
-2 -130 0
-1 -129 0
-3 -132 0
-1 -135 0
-2 -134 0
-2 -131 0
-1 -133 0
-2 -135 0
-4 -131 0
-5 -144 0
-3 -143 0
-5 -141 0
-2 -142 0
-4 -143 0
-3 -141 0
-1 -141 0
-7 -15 0
-9 -11 0
-6 -11 0
-8 -14 0
-9 -14 0
-6 -12 0
-8 -11 0
-9 -31 0
-8 -34 0
-10 -34 0
-10 -35 0
-6 -31 0
-9 -32 0
-10 -32 0
-7 -37 0
-8 -36 0
-10 -39 0
-10 -40 0
-8 -38 0
-6 -39 0
-6 -36 0
-9 -41 0
-6 -42 0
-6 -41 0
-8 -44 0
-9 -42 0
-10 -45 0
-7 -43 0
-7 -46 0
-8 -47 0
-8 -50 0
-9 -49 0
-7 -49 0
-8 -49 0
-9 -48 0
-8 -93 0
-7 -91 0
-9 -94 0
-10 -92 0
-10 -91 0
-7 -95 0
-10 -94 0
-10 -97 0
-6 -98 0
-6 -100 0
-10 -96 0
-9 -97 0
-9 -98 0
-9 -99 0
-9 -105 0
-8 -104 0
-10 -104 0
-6 -104 0
-9 -103 0
-6 -101 0
-6 -105 0
-9 -106 0
-8 -107 0
-8 -109 0
-6 -109 0
-9 -110 0
-6 -106 0
-10 -107 0
-6 -134 0
-8 -133 0
-7 -132 0
-9 -131 0
-6 -135 0
-8 -131 0
-7 -134 0
-10 -136 0
-10 -139 0
-8 -136 0
-9 -136 0
-7 -137 0
-10 -137 0
-9 -139 0
-7 -142 0
-10 -144 0
-6 -143 0
-6 -142 0
-10 -141 0
-9 -142 0
-6 -145 0
-12 -30 0
-11 -29 0
-13 -29 0
-15 -29 0
-12 -26 0
-13 -28 0
-12 -28 0
-13 -79 0
-15 -78 0
-12 -80 0
-13 -80 0
-12 -79 0
-12 -78 0
-13 -77 0
-12 -93 0
-13 -95 0
-14 -95 0
-15 -94 0
-12 -94 0
-14 -92 0
-15 -91 0
-15 -104 0
-11 -105 0
-11 -102 0
-15 -105 0
-12 -104 0
-15 -103 0
-15 -102 0
-11 -125 0
-14 -124 0
-15 -121 0
-13 -123 0
-15 -123 0
-13 -121 0
-11 -123 0
-13 -128 0
-14 -130 0
-12 -128 0
-11 -126 0
-13 -126 0
-13 -129 0
-14 -128 0
-11 -137 0
-12 -136 0
-15 -139 0
-13 -138 0
-11 -139 0
-14 -136 0
-11 -138 0
-19 -28 0
-19 -29 0
-18 -26 0
-19 -30 0
-17 -29 0
-20 -28 0
-20 -29 0
-16 -35 0
-19 -34 0
-19 -35 0
-17 -33 0
-16 -34 0
-16 -31 0
-20 -31 0
-18 -47 0
-20 -46 0
-19 -48 0
-20 -49 0
-17 -50 0
-16 -48 0
-17 -46 0
-19 -58 0
-18 -57 0
-18 -58 0
-16 -57 0
-20 -57 0
-19 -57 0
-18 -59 0
-16 -65 0
-17 -64 0
-18 -62 0
-20 -62 0
-20 -61 0
-20 -64 0
-19 -62 0
-16 -81 0
-18 -82 0
-20 -85 0
-20 -83 0
-16 -82 0
-20 -81 0
-17 -81 0
-20 -94 0
-20 -92 0
-19 -92 0
-19 -94 0
-20 -91 0
-19 -91 0
-18 -94 0
-16 -100 0
-17 -96 0
-20 -100 0
-16 -96 0
-17 -98 0
-19 -99 0
-20 -98 0
-18 -101 0
-18 -103 0
-16 -101 0
-17 -101 0
-18 -104 0
-16 -105 0
-17 -102 0
-20 -106 0
-18 -109 0
-18 -110 0
-19 -106 0
-17 -110 0
-20 -107 0
-16 -106 0
-20 -114 0
-20 -113 0
-18 -113 0
-18 -112 0
-16 -113 0
-16 -115 0
-17 -111 0
-20 -117 0
-17 -116 0
-18 -118 0
-17 -118 0
-19 -119 0
-18 -119 0
-16 -120 0
-22 -29 0
-21 -26 0
-25 -26 0
-22 -27 0
-22 -26 0
-22 -30 0
-24 -29 0
-24 -33 0
-22 -34 0
-25 -32 0
-21 -33 0
-25 -35 0
-23 -34 0
-21 -34 0
-22 -89 0
-24 -88 0
-22 -88 0
-23 -86 0
-21 -90 0
-25 -89 0
-24 -89 0
-24 -103 0
-21 -103 0
-25 -104 0
-24 -104 0
-22 -102 0
-22 -104 0
-24 -102 0
-21 -127 0
-22 -130 0
-21 -126 0
-25 -128 0
-21 -128 0
-25 -126 0
-25 -130 0
-25 -137 0
-21 -138 0
-24 -138 0
-21 -140 0
-22 -137 0
-23 -139 0
-23 -138 0
-25 -145 0
-22 -145 0
-25 -143 0
-22 -141 0
-24 -144 0
-21 -141 0
-23 -145 0
-21 -149 0
-23 -149 0
-21 -147 0
-23 -150 0
-25 -148 0
-21 -148 0
-23 -146 0
-30 -33 0
-27 -35 0
-27 -33 0
-26 -34 0
-26 -35 0
-29 -33 0
-28 -32 0
-30 -37 0
-26 -39 0
-29 -40 0
-28 -38 0
-29 -36 0
-26 -36 0
-26 -37 0
-30 -62 0
-28 -63 0
-27 -63 0
-26 -63 0
-30 -63 0
-26 -62 0
-27 -62 0
-30 -70 0
-28 -67 0
-28 -66 0
-29 -67 0
-26 -66 0
-29 -69 0
-28 -70 0
-28 -87 0
-28 -88 0
-29 -88 0
-27 -90 0
-30 -86 0
-26 -87 0
-28 -89 0
-27 -103 0
-29 -101 0
-30 -102 0
-30 -101 0
-28 -102 0
-26 -103 0
-28 -104 0
-26 -107 0
-29 -110 0
-28 -107 0
-30 -107 0
-26 -110 0
-29 -108 0
-27 -107 0
-30 -119 0
-29 -117 0
-30 -117 0
-30 -116 0
-30 -120 0
-27 -120 0
-27 -119 0
-30 -134 0
-27 -133 0
-28 -131 0
-29 -131 0
-30 -131 0
-27 -134 0
-30 -135 0
-28 -140 0
-26 -137 0
-29 -139 0
-30 -139 0
-28 -136 0
-30 -136 0
-29 -138 0
-27 -150 0
-30 -149 0
-28 -150 0
-26 -149 0
-28 -146 0
-28 -149 0
-30 -147 0
-33 -46 0
-31 -49 0
-32 -46 0
-35 -48 0
-31 -47 0
-33 -47 0
-31 -46 0
-35 -56 0
-34 -60 0
-31 -60 0
-35 -58 0
-33 -56 0
-31 -58 0
-32 -58 0
-33 -61 0
-34 -61 0
-33 -63 0
-32 -63 0
-32 -61 0
-31 -65 0
-31 -64 0
-35 -89 0
-34 -88 0
-33 -88 0
-32 -90 0
-34 -86 0
-34 -89 0
-31 -89 0
-31 -135 0
-32 -135 0
-32 -133 0
-31 -131 0
-35 -131 0
-35 -135 0
-31 -133 0
-34 -143 0
-31 -144 0
-31 -141 0
-33 -143 0
-31 -142 0
-34 -142 0
-32 -141 0
-40 -93 0
-40 -92 0
-37 -93 0
-37 -95 0
-39 -95 0
-40 -95 0
-36 -93 0
-36 -132 0
-39 -132 0
-40 -131 0
-37 -134 0
-37 -135 0
-38 -134 0
-37 -131 0
-37 -144 0
-39 -143 0
-37 -145 0
-40 -144 0
-36 -145 0
-36 -144 0
-40 -141 0
-41 -52 0
-45 -53 0
-43 -55 0
-42 -52 0
-41 -51 0
-42 -54 0
-43 -51 0
-43 -63 0
-43 -65 0
-41 -65 0
-43 -64 0
-41 -64 0
-44 -63 0
-42 -65 0
-44 -83 0
-42 -85 0
-45 -84 0
-45 -85 0
-44 -85 0
-42 -83 0
-41 -82 0
-42 -94 0
-44 -94 0
-42 -95 0
-41 -95 0
-43 -95 0
-43 -93 0
-42 -92 0
-42 -102 0
-42 -101 0
-41 -104 0
-43 -105 0
-43 -102 0
-41 -101 0
-43 -103 0
-42 -123 0
-42 -124 0
-45 -121 0
-43 -121 0
-41 -121 0
-42 -122 0
-45 -125 0
-41 -138 0
-41 -136 0
-41 -137 0
-45 -139 0
-42 -137 0
-42 -138 0
-43 -136 0
-47 -59 0
-48 -59 0
-49 -58 0
-50 -58 0
-49 -57 0
-49 -60 0
-50 -56 0
-50 -69 0
-50 -67 0
-49 -66 0
-47 -66 0
-48 -68 0
-47 -69 0
-47 -68 0
-50 -83 0
-48 -81 0
-46 -83 0
-49 -85 0
-48 -85 0
-47 -82 0
-46 -85 0
-48 -126 0
-48 -127 0
-48 -128 0
-50 -128 0
-46 -126 0
-49 -129 0
-46 -129 0
-55 -57 0
-53 -60 0
-52 -57 0
-52 -60 0
-53 -57 0
-54 -58 0
-54 -59 0
-54 -99 0
-53 -98 0
-54 -100 0
-52 -99 0
-55 -98 0
-51 -97 0
-55 -99 0
-51 -115 0
-53 -115 0
-54 -111 0
-54 -112 0
-51 -112 0
-51 -111 0
-52 -115 0
-55 -119 0
-51 -120 0
-51 -116 0
-52 -119 0
-55 -117 0
-52 -116 0
-51 -118 0
-54 -129 0
-55 -129 0
-55 -130 0
-51 -126 0
-53 -126 0
-52 -126 0
-52 -127 0
-54 -150 0
-51 -147 0
-51 -146 0
-53 -148 0
-55 -150 0
-52 -149 0
-54 -149 0
-60 -63 0
-57 -62 0
-56 -62 0
-60 -65 0
-56 -65 0
-58 -62 0
-60 -61 0
-56 -77 0
-56 -80 0
-58 -76 0
-58 -78 0
-57 -76 0
-59 -77 0
-60 -79 0
-56 -92 0
-57 -91 0
-59 -95 0
-56 -94 0
-58 -93 0
-60 -92 0
-60 -93 0
-59 -127 0
-60 -127 0
-58 -127 0
-57 -129 0
-56 -127 0
-60 -126 0
-59 -130 0
-60 -131 0
-60 -134 0
-58 -132 0
-57 -133 0
-59 -133 0
-57 -131 0
-59 -131 0
-60 -149 0
-57 -146 0
-56 -150 0
-56 -146 0
-58 -147 0
-59 -147 0
-59 -146 0
-64 -86 0
-61 -89 0
-62 -90 0
-63 -90 0
-62 -89 0
-64 -87 0
-63 -87 0
-62 -93 0
-62 -95 0
-64 -94 0
-63 -91 0
-61 -95 0
-65 -92 0
-63 -94 0
-63 -114 0
-63 -115 0
-61 -112 0
-64 -112 0
-63 -111 0
-65 -114 0
-62 -111 0
-65 -136 0
-61 -138 0
-65 -140 0
-61 -136 0
-62 -137 0
-62 -139 0
-61 -139 0
-67 -77 0
-69 -80 0
-69 -77 0
-70 -77 0
-69 -79 0
-68 -76 0
-68 -80 0
-69 -85 0
-66 -83 0
-68 -83 0
-67 -84 0
-68 -84 0
-69 -81 0
-68 -85 0
-69 -97 0
-70 -100 0
-70 -97 0
-69 -96 0
-67 -100 0
-68 -98 0
-69 -100 0
-70 -124 0
-70 -125 0
-68 -121 0
-66 -124 0
-68 -124 0
-66 -123 0
-68 -125 0
-67 -127 0
-68 -127 0
-69 -128 0
-67 -128 0
-69 -126 0
-66 -128 0
-66 -127 0
-69 -142 0
-70 -143 0
-67 -141 0
-69 -143 0
-67 -145 0
-69 -144 0
-69 -141 0
-72 -77 0
-72 -76 0
-73 -79 0
-71 -80 0
-73 -76 0
-72 -79 0
-73 -78 0
-75 -92 0
-73 -92 0
-72 -93 0
-75 -95 0
-74 -93 0
-75 -94 0
-74 -92 0
-73 -97 0
-75 -97 0
-71 -97 0
-75 -98 0
-72 -97 0
-74 -100 0
-73 -99 0
-74 -118 0
-71 -116 0
-71 -118 0
-73 -116 0
-72 -119 0
-74 -117 0
-72 -117 0
-74 -126 0
-71 -128 0
-72 -130 0
-73 -126 0
-73 -129 0
-72 -126 0
-75 -128 0
-73 -136 0
-74 -140 0
-72 -138 0
-71 -137 0
-73 -140 0
-71 -136 0
-73 -138 0
-75 -145 0
-75 -141 0
-71 -143 0
-72 -141 0
-71 -144 0
-73 -145 0
-73 -144 0
-77 -98 0
-76 -97 0
-78 -96 0
-79 -97 0
-76 -100 0
-77 -99 0
-80 -100 0
-79 -101 0
-80 -102 0
-78 -104 0
-77 -103 0
-78 -101 0
-80 -103 0
-77 -104 0
-80 -113 0
-77 -113 0
-78 -111 0
-76 -113 0
-78 -112 0
-77 -112 0
-79 -111 0
-79 -128 0
-76 -128 0
-77 -130 0
-79 -126 0
-76 -130 0
-76 -126 0
-79 -130 0
-84 -97 0
-81 -97 0
-82 -99 0
-84 -99 0
-85 -99 0
-84 -96 0
-85 -96 0
-82 -128 0
-84 -127 0
-83 -129 0
-81 -126 0
-84 -129 0
-85 -127 0
-83 -127 0
-90 -92 0
-86 -92 0
-87 -95 0
-87 -94 0
-87 -92 0
-90 -95 0
-88 -94 0
-86 -106 0
-89 -110 0
-90 -107 0
-89 -109 0
-86 -109 0
-87 -107 0
-90 -106 0
-90 -120 0
-89 -120 0
-89 -117 0
-87 -116 0
-88 -120 0
-87 -119 0
-87 -117 0
-88 -138 0
-88 -137 0
-88 -136 0
-87 -139 0
-90 -138 0
-87 -137 0
-90 -140 0
-95 -96 0
-95 -98 0
-93 -96 0
-95 -99 0
-92 -100 0
-91 -100 0
-91 -99 0
-95 -112 0
-93 -114 0
-93 -112 0
-95 -114 0
-93 -115 0
-92 -113 0
-91 -111 0
-95 -136 0
-93 -136 0
-92 -136 0
-95 -138 0
-94 -140 0
-94 -136 0
-92 -139 0
-95 -145 0
-94 -144 0
-92 -144 0
-92 -145 0
-92 -143 0
-94 -143 0
-91 -143 0
-96 -140 0
-98 -136 0
-97 -139 0
-99 -138 0
-97 -137 0
-98 -137 0
-96 -137 0
-107 -121 0
-108 -124 0
-107 -125 0
-110 -125 0
-107 -124 0
-109 -123 0
-106 -121 0
-108 -132 0
-106 -134 0
-106 -131 0
-109 -135 0
-106 -135 0
-106 -132 0
-109 -133 0
-106 -136 0
-109 -136 0
-109 -138 0
-106 -138 0
-107 -139 0
-110 -138 0
-110 -139 0
-113 -126 0
-112 -129 0
-112 -130 0
-114 -127 0
-115 -126 0
-112 -128 0
-114 -129 0
-122 -133 0
-121 -131 0
-123 -133 0
-125 -135 0
-122 -134 0
-125 -133 0
-123 -132 0
-121 -144 0
-123 -141 0
-124 -144 0
-122 -141 0
-123 -144 0
-124 -142 0
-124 -141 0
-124 -149 0
-125 -147 0
-125 -148 0
-123 -149 0
-122 -149 0
-121 -150 0
-121 -149 0
-126 -146 0
-129 -149 0
-129 -150 0
-128 -150 0
-128 -147 0
-128 -146 0
-130 -149 0
